p tw 353 398
1 2
2 113
3 14
4 5
5 6
5 18
6 7
7 8
8 9
9 10
9 18
10 11
11 12
12 13
13 15
14 25
15 16
16 17
17 323
18 19
19 20
20 21
20 26
21 22
22 23
23 24
24 323
25 36
26 27
27 28
28 29
28 43
29 30
30 31
30 59
31 32
32 33
32 39
33 34
34 35
34 73
35 37
36 47
37 38
38 323
39 40
40 41
41 42
42 323
43 44
44 45
44 323
45 46
45 50
46 48
47 58
48 49
49 52
50 51
51 52
52 53
53 54
54 55
55 56
56 57
57 323
58 69
59 60
60 61
60 323
61 62
62 63
63 64
64 65
65 66
65 68
66 67
67 62
68 70
69 80
70 71
71 72
72 323
73 74
74 75
75 76
75 82
76 77
76 82
77 78
78 79
79 81
80 91
81 323
82 83
83 84
83 107
84 85
85 86
86 87
87 88
87 107
88 89
89 90
90 92
91 102
92 93
92 98
93 94
94 95
95 96
96 97
97 98
98 99
99 100
100 101
101 103
102 114
103 104
104 105
105 106
106 323
107 108
108 109
109 110
110 111
111 112
112 115
113 224
114 125
115 116
116 117
117 118
118 119
119 120
120 121
121 122
122 323
123 124
124 126
125 136
126 127
126 211
127 128
128 129
129 130
130 131
131 132
132 133
133 134
133 211
134 135
135 137
135 211
136 147
137 138
138 139
139 140
140 141
140 207
141 142
142 143
142 207
143 144
144 145
144 166
144 197
144 176
145 146
146 148
147 158
148 149
149 150
150 151
151 152
152 153
153 154
154 155
155 156
156 157
157 159
158 169
159 160
159 163
160 161
161 162
162 163
163 164
164 165
165 131
166 167
167 168
168 170
169 180
170 171
170 173
171 172
172 173
173 174
174 175
175 131
176 177
177 178
178 179
179 181
180 191
181 182
182 183
183 184
184 185
185 186
186 187
187 188
188 189
189 190
189 194
190 192
191 202
192 193
193 194
194 195
195 196
196 131
197 198
198 199
199 200
200 201
200 204
201 203
202 213
203 204
204 205
205 206
206 131
207 208
208 209
209 210
210 131
211 212
212 214
213 225
214 215
214 219
215 216
216 217
217 218
218 274
219 220
220 221
221 222
221 229
222 223
223 226
224 288
225 236
226 227
227 228
228 274
229 230
230 231
231 232
231 238
232 233
233 234
234 235
235 237
236 247
237 274
238 239
239 240
240 241
240 257
241 242
241 245
242 243
243 244
244 274
245 246
246 248
246 251
247 258
248 249
249 250
250 274
251 252
252 253
253 254
254 255
255 256
256 274
257 259
258 269
259 260
260 261
260 274
261 262
262 263
263 264
264 265
265 266
266 267
267 268
268 270
269 280
270 271
271 272
272 273
273 274
273 264
274 275
275 276
276 277
277 297
278 279
279 281
280 284
281 282
282 283
284 285
285 286
286 287
287 289
288 299
289 290
290 291
291 292
292 293
293 294
294 295
295 296
296 297
297 298
298 300
299 310
300 301
301 302
302 303
303 304
304 305
305 306
306 307
306 308
307 282
308 309
309 311
310 321
310 3
311 312
312 313
313 314
313 317
314 315
315 316
316 319
317 318
318 319
319 320
320 322
320 123
321 332
322 323
323 324
324 325
325 326
325 211
326 327
327 328
328 329
328 331
329 330
330 338
331 333
332 343
332 305
333 334
333 336
334 335
335 338
336 337
337 338
338 339
339 340
340 341
340 348
341 342
342 344
343 278
344 345
345 346
346 347
347 348
348 349
349 350
350 351
351 352
351 18
352 353
353 4
